12 66
1 2 4
1 3 2
1 4 5
1 5 3
1 6 3
1 7 1
1 8 4
1 9 1
1 10 1
1 11 5
1 12 4
2 3 5
2 4 2
2 5 5
2 6 1
2 7 5
2 8 3
2 9 4
2 10 2
2 11 1
2 12 5
3 4 2
3 5 2
3 6 3
3 7 4
3 8 1
3 9 1
3 10 2
3 11 1
3 12 1
4 5 1
4 6 4
4 7 4
4 8 3
4 9 4
4 10 5
4 11 3
4 12 2
5 6 3
5 7 4
5 8 2
5 9 1
5 10 1
5 11 1
5 12 5
6 7 3
6 8 1
6 9 3
6 10 4
6 11 4
6 12 5
7 8 4
7 9 2
7 10 2
7 11 3
7 12 2
8 9 5
8 10 5
8 11 3
8 12 5
9 10 1
9 11 3
9 12 4
10 11 3
10 12 2
11 12 4
